0 0 0 0
0 1 0 0
0 2 1 0
0 3 2 0
0 4 0 1
0 5 1 1
0 6 0 6
0 7 2 1
0 8 0 7
0 9 1 3
0 10 0 9
0 11 0 9
0 12 0 9
0 13 1 6
0 14 0 3
0 15 2 12
0 16 2 8
0 17 2 11
0 18 0 11
0 19 0 14
0 20 1 17
0 21 0 11
0 22 0 14
0 23 1 15
0 24 1 21
0 25 0 17
0 26 0 16
0 27 0 23
0 28 0 25
0 29 0 24
0 30 0 24
0 31 0 27
